p cnf 7230 16
1240 -1329 0
1240 -1332 0
-1236 -1336 1337 0
1236 -1338 0
-1240 -1327 1328 0
1240 -1335 0
-1240 -1330 1331 0
-1240 -1333 1334 0
-1337 1338 0
-1328 1329 0
1336 -1338 0
1333 -1335 0
-1331 1332 0
1330 -1332 0
1327 -1329 0
-1334 1335 0
